TOUR_SECTION
1
189
129
13
69
21
38
53
127
150
162
106
76
48
188
90
152
63
193
16
20
50
120
12
64
142
154
113
112
153
73
131
93
158
122
83
57
55
75
36
41
126
26
62
85
77
116
161
180
174
30
179
82
123
108
164
4
44
14
135
185
121
137
27
136
147
25
170
140
172
28
109
141
33
40
9
118
168
34
29
103
166
88
45
165
10
114
176
195
177
39
67
99
173
192
198
43
35
19
191
7
24
102
71
200
101
17
169
81
163
52
199
157
100
186
11
47
72
97
15
94
31
87
98
119
190
194
138
2
5
46
22
59
133
60
78
117
151
184
132
145
197
66
91
32
182
89
175
156
159
84
37
171
95
86
110
105
104
65
167
49
134
187
111
183
80
139
92
128
6
54
107
23
74
18
61
56
70
148
42
51
58
68
146
96
124
181
79
125
3
160
115
143
130
178
149
144
196
155
8
-1
EOF